graphs/miles750.col
p edge 128 2113
e 1 12
e 1 27
e 1 31
e 1 32
e 1 33
e 1 37
e 1 44
e 1 47
e 1 55
e 1 57
e 1 64
e 1 67
e 1 70
e 1 72
e 1 74
e 1 76
e 1 79
e 1 80
e 1 88
e 1 90
e 1 98
e 1 102
e 1 103
e 1 105
e 1 108
e 1 109
e 1 110
e 1 114
e 1 117
e 1 119
e 1 120
e 1 122
e 1 128
e 2 6
e 2 7
e 2 8
e 2 10
e 2 13
e 2 20
e 2 22
e 2 23
e 2 24
e 2 25
e 2 28
e 2 30
e 2 36
e 2 38
e 2 41
e 2 45
e 2 46
e 2 52
e 2 53
e 2 58
e 2 60
e 2 61
e 2 62
e 2 64
e 2 66
e 2 68
e 2 69
e 2 70
e 2 71
e 2 75
e 2 76
e 2 82
e 2 83
e 2 84
e 2 86
e 2 88
e 2 89
e 2 91
e 2 92
e 2 93
e 2 94
e 2 96
e 2 99
e 2 107
e 2 111
e 2 113
e 2 115
e 2 116
e 2 118
e 2 122
e 2 123
e 2 126
e 2 127
e 2 128
e 3 4
e 3 5
e 3 9
e 3 11
e 3 16
e 3 18
e 3 21
e 3 26
e 3 32
e 3 35
e 3 42
e 3 48
e 3 49
e 3 50
e 3 59
e 3 63
e 3 81
e 3 85
e 3 87
e 3 104
e 3 124
e 4 5
e 4 9
e 4 15
e 4 18
e 4 21
e 4 26
e 4 29
e 4 40
e 4 48
e 4 49
e 4 54
e 4 59
e 4 77
e 4 104
e 4 124
e 5 9
e 5 12
e 5 16
e 5 21
e 5 29
e 5 32
e 5 33
e 5 35
e 5 37
e 5 48
e 5 63
e 5 77
e 5 81
e 5 87
e 5 104
e 6 10
e 6 13
e 6 23
e 6 41
e 6 56
e 6 60
e 6 64
e 6 67
e 6 70
e 6 71
e 6 75
e 6 76
e 6 84
e 6 89
e 6 93
e 6 95
e 6 96
e 6 106
e 6 107
e 6 111
e 6 113
e 6 122
e 6 127
e 7 8
e 7 14
e 7 19
e 7 20
e 7 25
e 7 27
e 7 28
e 7 39
e 7 43
e 7 45
e 7 46
e 7 52
e 7 58
e 7 62
e 7 66
e 7 68
e 7 69
e 7 73
e 7 76
e 7 78
e 7 83
e 7 88
e 7 91
e 7 92
e 7 94
e 7 99
e 7 100
e 7 101
e 7 107
e 7 110
e 7 113
e 7 114
e 7 115
e 7 123
e 7 125
e 7 126
e 7 128
e 8 10
e 8 14
e 8 19
e 8 20
e 8 27
e 8 28
e 8 39
e 8 43
e 8 45
e 8 52
e 8 58
e 8 62
e 8 64
e 8 65
e 8 66
e 8 68
e 8 69
e 8 73
e 8 74
e 8 75
e 8 76
e 8 78
e 8 79
e 8 83
e 8 88
e 8 90
e 8 91
e 8 92
e 8 94
e 8 97
e 8 99
e 8 100
e 8 101
e 8 102
e 8 105
e 8 107
e 8 108
e 8 110
e 8 113
e 8 114
e 8 115
e 8 117
e 8 122
e 8 123
e 8 125
e 8 126
e 8 128
e 9 15
e 9 18
e 9 21
e 9 26
e 9 29
e 9 40
e 9 42
e 9 48
e 9 49
e 9 54
e 9 59
e 9 77
e 9 81
e 9 85
e 9 87
e 9 104
e 9 124
e 10 13
e 10 20
e 10 22
e 10 24
e 10 25
e 10 28
e 10 30
e 10 36
e 10 38
e 10 41
e 10 45
e 10 46
e 10 52
e 10 53
e 10 58
e 10 61
e 10 62
e 10 66
e 10 68
e 10 69
e 10 71
e 10 75
e 10 76
e 10 82
e 10 83
e 10 84
e 10 86
e 10 88
e 10 91
e 10 92
e 10 93
e 10 94
e 10 96
e 10 99
e 10 107
e 10 111
e 10 113
e 10 115
e 10 116
e 10 118
e 10 123
e 10 126
e 10 127
e 11 17
e 11 42
e 11 49
e 11 50
e 11 59
e 11 63
e 11 81
e 11 85
e 11 104
e 12 16
e 12 31
e 12 32
e 12 33
e 12 35
e 12 37
e 12 44
e 12 47
e 12 48
e 12 55
e 12 74
e 12 79
e 12 80
e 12 87
e 12 90
e 12 98
e 12 102
e 12 103
e 12 108
e 12 109
e 12 110
e 12 112
e 12 117
e 12 120
e 13 23
e 13 24
e 13 30
e 13 41
e 13 45
e 13 56
e 13 60
e 13 64
e 13 67
e 13 70
e 13 71
e 13 75
e 13 76
e 13 84
e 13 89
e 13 93
e 13 95
e 13 96
e 13 106
e 13 107
e 13 111
e 13 113
e 13 122
e 13 123
e 13 127
e 14 19
e 14 27
e 14 28
e 14 39
e 14 43
e 14 45
e 14 52
e 14 62
e 14 65
e 14 66
e 14 68
e 14 69
e 14 73
e 14 76
e 14 78
e 14 83
e 14 88
e 14 91
e 14 92
e 14 94
e 14 97
e 14 99
e 14 100
e 14 101
e 14 114
e 14 115
e 14 123
e 14 125
e 14 126
e 14 128
e 15 18
e 15 21
e 15 26
e 15 29
e 15 40
e 15 48
e 15 49
e 15 54
e 15 77
e 15 104
e 15 112
e 15 124
e 16 32
e 16 33
e 16 35
e 16 37
e 16 47
e 16 48
e 16 65
e 16 74
e 16 79
e 16 80
e 16 87
e 16 90
e 16 97
e 16 102
e 16 105
e 16 110
e 16 114
e 16 117
e 16 121
e 16 125
e 17 42
e 17 49
e 17 50
e 17 59
e 17 63
e 17 81
e 17 85
e 18 21
e 18 26
e 18 29
e 18 40
e 18 49
e 18 54
e 18 59
e 18 77
e 18 104
e 18 124
e 19 27
e 19 28
e 19 39
e 19 43
e 19 51
e 19 52
e 19 62
e 19 65
e 19 66
e 19 68
e 19 73
e 19 74
e 19 76
e 19 78
e 19 79
e 19 88
e 19 90
e 19 91
e 19 92
e 19 97
e 19 99
e 19 100
e 19 101
e 19 105
e 19 108
e 19 110
e 19 114
e 19 115
e 19 117
e 19 123
e 19 125
e 19 126
e 19 128
e 20 22
e 20 24
e 20 25
e 20 28
e 20 30
e 20 36
e 20 38
e 20 41
e 20 43
e 20 45
e 20 46
e 20 52
e 20 53
e 20 58
e 20 61
e 20 62
e 20 66
e 20 68
e 20 69
e 20 75
e 20 76
e 20 82
e 20 83
e 20 84
e 20 86
e 20 88
e 20 91
e 20 92
e 20 93
e 20 94
e 20 96
e 20 99
e 20 107
e 20 111
e 20 113
e 20 115
e 20 116
e 20 118
e 20 123
e 20 126
e 20 127
e 20 128
e 21 26
e 21 29
e 21 40
e 21 42
e 21 48
e 21 49
e 21 54
e 21 59
e 21 77
e 21 81
e 21 104
e 21 124
e 22 24
e 22 25
e 22 30
e 22 36
e 22 38
e 22 41
e 22 45
e 22 46
e 22 52
e 22 53
e 22 58
e 22 61
e 22 66
e 22 69
e 22 82
e 22 83
e 22 86
e 22 93
e 22 94
e 22 113
e 22 115
e 22 116
e 22 118
e 22 123
e 22 126
e 23 55
e 23 56
e 23 57
e 23 60
e 23 64
e 23 67
e 23 70
e 23 71
e 23 75
e 23 76
e 23 84
e 23 89
e 23 95
e 23 96
e 23 106
e 23 107
e 23 111
e 23 122
e 23 127
e 24 25
e 24 28
e 24 30
e 24 36
e 24 38
e 24 41
e 24 45
e 24 46
e 24 52
e 24 53
e 24 58
e 24 61
e 24 62
e 24 66
e 24 68
e 24 69
e 24 71
e 24 75
e 24 82
e 24 83
e 24 84
e 24 86
e 24 88
e 24 91
e 24 92
e 24 93
e 24 94
e 24 96
e 24 99
e 24 107
e 24 111
e 24 113
e 24 115
e 24 116
e 24 118
e 24 123
e 24 126
e 24 127
e 25 28
e 25 30
e 25 36
e 25 38
e 25 41
e 25 45
e 25 46
e 25 52
e 25 53
e 25 58
e 25 61
e 25 62
e 25 66
e 25 68
e 25 69
e 25 75
e 25 82
e 25 83
e 25 84
e 25 86
e 25 91
e 25 92
e 25 93
e 25 94
e 25 99
e 25 107
e 25 111
e 25 113
e 25 115
e 25 116
e 25 118
e 25 123
e 25 126
e 25 127
e 26 29
e 26 40
e 26 49
e 26 54
e 26 59
e 26 77
e 26 104
e 26 124
e 27 28
e 27 31
e 27 39
e 27 43
e 27 45
e 27 52
e 27 55
e 27 57
e 27 62
e 27 64
e 27 66
e 27 67
e 27 68
e 27 69
e 27 70
e 27 73
e 27 74
e 27 75
e 27 76
e 27 78
e 27 79
e 27 80
e 27 83
e 27 88
e 27 90
e 27 91
e 27 92
e 27 97
e 27 98
e 27 99
e 27 100
e 27 101
e 27 102
e 27 103
e 27 105
e 27 107
e 27 108
e 27 109
e 27 110
e 27 113
e 27 114
e 27 115
e 27 117
e 27 122
e 27 123
e 27 125
e 27 126
e 27 127
e 27 128
e 28 30
e 28 36
e 28 38
e 28 39
e 28 41
e 28 43
e 28 45
e 28 46
e 28 52
e 28 53
e 28 58
e 28 61
e 28 62
e 28 64
e 28 66
e 28 68
e 28 69
e 28 73
e 28 74
e 28 75
e 28 76
e 28 78
e 28 79
e 28 82
e 28 83
e 28 86
e 28 88
e 28 91
e 28 92
e 28 93
e 28 94
e 28 96
e 28 99
e 28 100
e 28 101
e 28 107
e 28 108
e 28 110
e 28 111
e 28 113
e 28 114
e 28 115
e 28 116
e 28 118
e 28 123
e 28 125
e 28 126
e 28 127
e 28 128
e 29 40
e 29 48
e 29 49
e 29 54
e 29 77
e 29 104
e 29 112
e 29 124
e 30 36
e 30 38
e 30 41
e 30 45
e 30 46
e 30 52
e 30 53
e 30 58
e 30 61
e 30 62
e 30 66
e 30 68
e 30 69
e 30 75
e 30 76
e 30 82
e 30 83
e 30 84
e 30 86
e 30 88
e 30 91
e 30 92
e 30 93
e 30 94
e 30 96
e 30 99
e 30 107
e 30 111
e 30 113
e 30 115
e 30 116
e 30 118
e 30 123
e 30 126
e 30 127
e 31 32
e 31 33
e 31 37
e 31 44
e 31 47
e 31 55
e 31 57
e 31 64
e 31 67
e 31 72
e 31 74
e 31 79
e 31 80
e 31 90
e 31 98
e 31 102
e 31 103
e 31 108
e 31 109
e 31 110
e 31 117
e 31 119
e 31 120
e 31 122
e 32 33
e 32 35
e 32 37
e 32 47
e 32 48
e 32 74
e 32 79
e 32 80
e 32 87
e 32 90
e 32 98
e 32 102
e 32 109
e 32 112
e 32 117
e 32 120
e 33 35
e 33 37
e 33 39
e 33 47
e 33 48
e 33 65
e 33 74
e 33 78
e 33 79
e 33 80
e 33 87
e 33 90
e 33 97
e 33 102
e 33 105
e 33 108
e 33 109
e 33 110
e 33 114
e 33 117
e 33 120
e 33 121
e 33 125
e 34 35
e 34 51
e 34 65
e 34 97
e 34 121
e 34 125
e 35 48
e 35 63
e 35 65
e 35 74
e 35 87
e 35 97
e 35 105
e 35 117
e 35 121
e 36 38
e 36 41
e 36 45
e 36 46
e 36 52
e 36 53
e 36 58
e 36 61
e 36 66
e 36 69
e 36 75
e 36 82
e 36 83
e 36 86
e 36 93
e 36 94
e 36 111
e 36 113
e 36 115
e 36 116
e 36 118
e 36 123
e 36 126
e 36 127
e 37 44
e 37 47
e 37 48
e 37 72
e 37 80
e 37 87
e 37 98
e 37 102
e 37 103
e 37 109
e 37 112
e 37 120
e 38 41
e 38 45
e 38 46
e 38 52
e 38 53
e 38 58
e 38 61
e 38 62
e 38 66
e 38 68
e 38 69
e 38 75
e 38 82
e 38 83
e 38 84
e 38 86
e 38 91
e 38 92
e 38 93
e 38 94
e 38 96
e 38 99
e 38 107
e 38 111
e 38 113
e 38 115
e 38 116
e 38 118
e 38 123
e 38 126
e 38 127
e 39 43
e 39 51
e 39 52
e 39 62
e 39 65
e 39 66
e 39 68
e 39 73
e 39 74
e 39 76
e 39 78
e 39 79
e 39 80
e 39 88
e 39 90
e 39 91
e 39 92
e 39 97
e 39 99
e 39 100
e 39 101
e 39 102
e 39 105
e 39 108
e 39 109
e 39 110
e 39 114
e 39 117
e 39 121
e 39 125
e 39 128
e 40 49
e 40 54
e 40 59
e 40 77
e 40 104
e 40 124
e 41 45
e 41 46
e 41 52
e 41 53
e 41 58
e 41 61
e 41 66
e 41 68
e 41 69
e 41 71
e 41 75
e 41 82
e 41 83
e 41 84
e 41 86
e 41 92
e 41 93
e 41 94
e 41 96
e 41 99
e 41 107
e 41 111
e 41 113
e 41 115
e 41 116
e 41 118
e 41 123
e 41 126
e 41 127
e 42 49
e 42 50
e 42 59
e 42 63
e 42 81
e 42 85
e 42 104
e 43 45
e 43 52
e 43 62
e 43 64
e 43 65
e 43 66
e 43 68
e 43 69
e 43 73
e 43 74
e 43 76
e 43 78
e 43 79
e 43 80
e 43 83
e 43 88
e 43 90
e 43 91
e 43 92
e 43 94
e 43 97
e 43 99
e 43 100
e 43 101
e 43 102
e 43 105
e 43 107
e 43 108
e 43 109
e 43 110
e 43 113
e 43 114
e 43 115
e 43 117
e 43 122
e 43 123
e 43 125
e 43 126
e 43 128
e 44 47
e 44 55
e 44 57
e 44 64
e 44 67
e 44 70
e 44 72
e 44 79
e 44 80
e 44 90
e 44 98
e 44 102
e 44 103
e 44 108
e 44 109
e 44 110
e 44 119
e 44 120
e 44 122
e 45 46
e 45 52
e 45 53
e 45 58
e 45 61
e 45 62
e 45 66
e 45 68
e 45 69
e 45 71
e 45 73
e 45 75
e 45 76
e 45 82
e 45 83
e 45 84
e 45 86
e 45 88
e 45 91
e 45 92
e 45 93
e 45 94
e 45 96
e 45 99
e 45 100
e 45 107
e 45 111
e 45 113
e 45 115
e 45 116
e 45 118
e 45 123
e 45 126
e 45 127
e 45 128
e 46 52
e 46 53
e 46 58
e 46 61
e 46 62
e 46 66
e 46 68
e 46 69
e 46 75
e 46 82
e 46 83
e 46 86
e 46 91
e 46 92
e 46 93
e 46 94
e 46 99
e 46 107
e 46 111
e 46 113
e 46 115
e 46 116
e 46 118
e 46 123
e 46 126
e 46 127
e 47 55
e 47 57
e 47 72
e 47 80
e 47 98
e 47 102
e 47 103
e 47 109
e 47 112
e 47 119
e 47 120
e 48 54
e 48 77
e 48 87
e 48 112
e 49 50
e 49 54
e 49 59
e 49 63
e 49 77
e 49 81
e 49 85
e 49 104
e 49 124
e 50 59
e 50 63
e 50 81
e 50 85
e 50 104
e 51 65
e 51 73
e 51 74
e 51 78
e 51 97
e 51 100
e 51 101
e 51 105
e 51 114
e 51 117
e 51 121
e 51 125
e 52 53
e 52 58
e 52 61
e 52 62
e 52 64
e 52 66
e 52 68
e 52 69
e 52 73
e 52 75
e 52 76
e 52 78
e 52 79
e 52 82
e 52 83
e 52 84
e 52 86
e 52 88
e 52 91
e 52 92
e 52 93
e 52 94
e 52 96
e 52 99
e 52 100
e 52 101
e 52 107
e 52 108
e 52 110
e 52 111
e 52 113
e 52 114
e 52 115
e 52 116
e 52 118
e 52 123
e 52 126
e 52 127
e 52 128
e 53 58
e 53 61
e 53 62
e 53 66
e 53 68
e 53 69
e 53 75
e 53 82
e 53 83
e 53 84
e 53 86
e 53 88
e 53 91
e 53 92
e 53 93
e 53 94
e 53 96
e 53 99
e 53 107
e 53 111
e 53 113
e 53 115
e 53 116
e 53 118
e 53 123
e 53 126
e 53 127
e 54 77
e 54 104
e 54 112
e 54 124
e 55 57
e 55 64
e 55 67
e 55 70
e 55 72
e 55 76
e 55 79
e 55 80
e 55 88
e 55 90
e 55 98
e 55 102
e 55 103
e 55 108
e 55 109
e 55 110
e 55 119
e 55 120
e 55 122
e 55 128
e 56 60
e 56 64
e 56 67
e 56 70
e 56 71
e 56 84
e 56 89
e 56 95
e 56 96
e 56 106
e 56 111
e 56 122
e 56 127
e 57 64
e 57 67
e 57 70
e 57 72
e 57 76
e 57 79
e 57 80
e 57 88
e 57 89
e 57 90
e 57 98
e 57 102
e 57 103
e 57 108
e 57 109
e 57 110
e 57 119
e 57 120
e 57 122
e 57 128
e 58 61
e 58 62
e 58 66
e 58 68
e 58 69
e 58 75
e 58 82
e 58 83
e 58 84
e 58 86
e 58 88
e 58 91
e 58 92
e 58 93
e 58 94
e 58 99
e 58 107
e 58 111
e 58 113
e 58 115
e 58 116
e 58 118
e 58 123
e 58 126
e 58 127
e 59 63
e 59 81
e 59 85
e 59 104
e 59 124
e 60 64
e 60 67
e 60 70
e 60 71
e 60 75
e 60 84
e 60 89
e 60 93
e 60 95
e 60 96
e 60 106
e 60 107
e 60 111
e 60 122
e 60 127
e 61 66
e 61 68
e 61 69
e 61 75
e 61 82
e 61 83
e 61 84
e 61 86
e 61 92
e 61 93
e 61 94
e 61 107
e 61 111
e 61 113
e 61 115
e 61 116
e 61 118
e 61 123
e 61 126
e 61 127
e 62 64
e 62 66
e 62 68
e 62 69
e 62 73
e 62 74
e 62 75
e 62 76
e 62 78
e 62 79
e 62 82
e 62 83
e 62 88
e 62 90
e 62 91
e 62 92
e 62 93
e 62 94
e 62 97
e 62 99
e 62 100
e 62 101
e 62 105
e 62 107
e 62 108
e 62 110
e 62 113
e 62 114
e 62 115
e 62 116
e 62 117
e 62 122
e 62 123
e 62 125
e 62 126
e 62 127
e 62 128
e 63 81
e 63 85
e 63 104
e 64 67
e 64 68
e 64 70
e 64 71
e 64 75
e 64 76
e 64 79
e 64 80
e 64 84
e 64 88
e 64 89
e 64 90
e 64 91
e 64 92
e 64 96
e 64 98
e 64 100
e 64 103
e 64 107
e 64 108
e 64 109
e 64 110
e 64 114
e 64 119
e 64 122
e 64 123
e 64 127
e 64 128
e 65 73
e 65 74
e 65 78
e 65 79
e 65 90
e 65 97
e 65 100
e 65 101
e 65 102
e 65 105
e 65 114
e 65 117
e 65 121
e 65 125
e 66 68
e 66 69
e 66 73
e 66 75
e 66 76
e 66 82
e 66 83
e 66 84
e 66 86
e 66 88
e 66 91
e 66 92
e 66 93
e 66 94
e 66 96
e 66 99
e 66 100
e 66 101
e 66 107
e 66 110
e 66 111
e 66 113
e 66 114
e 66 115
e 66 116
e 66 118
e 66 123
e 66 126
e 66 127
e 66 128
e 67 68
e 67 70
e 67 71
e 67 72
e 67 76
e 67 79
e 67 80
e 67 88
e 67 89
e 67 90
e 67 96
e 67 98
e 67 103
e 67 108
e 67 109
e 67 110
e 67 119
e 67 120
e 67 122
e 67 128
e 68 69
e 68 70
e 68 71
e 68 73
e 68 74
e 68 75
e 68 76
e 68 78
e 68 79
e 68 82
e 68 83
e 68 84
e 68 88
e 68 90
e 68 91
e 68 92
e 68 93
e 68 94
e 68 96
e 68 99
e 68 100
e 68 101
e 68 102
e 68 107
e 68 108
e 68 109
e 68 110
e 68 111
e 68 113
e 68 114
e 68 115
e 68 116
e 68 122
e 68 123
e 68 125
e 68 126
e 68 127
e 68 128
e 69 73
e 69 75
e 69 76
e 69 82
e 69 83
e 69 84
e 69 86
e 69 88
e 69 91
e 69 92
e 69 93
e 69 94
e 69 96
e 69 99
e 69 100
e 69 107
e 69 111
e 69 113
e 69 115
e 69 116
e 69 118
e 69 123
e 69 126
e 69 127
e 69 128
e 70 71
e 70 75
e 70 76
e 70 84
e 70 88
e 70 89
e 70 92
e 70 95
e 70 96
e 70 98
e 70 103
e 70 106
e 70 107
e 70 108
e 70 109
e 70 110
e 70 111
e 70 122
e 70 127
e 70 128
e 71 75
e 71 76
e 71 84
e 71 88
e 71 89
e 71 92
e 71 93
e 71 95
e 71 96
e 71 106
e 71 107
e 71 111
e 71 113
e 71 122
e 71 123
e 71 126
e 71 127
e 72 80
e 72 98
e 72 102
e 72 103
e 72 108
e 72 109
e 72 119
e 72 120
e 73 74
e 73 76
e 73 78
e 73 79
e 73 83
e 73 88
e 73 90
e 73 91
e 73 92
e 73 97
e 73 99
e 73 100
e 73 101
e 73 105
e 73 108
e 73 110
e 73 114
e 73 115
e 73 117
e 73 123
e 73 125
e 73 126
e 73 128
e 74 76
e 74 78
e 74 79
e 74 80
e 74 88
e 74 90
e 74 91
e 74 97
e 74 98
e 74 100
e 74 101
e 74 102
e 74 105
e 74 108
e 74 109
e 74 110
e 74 114
e 74 117
e 74 121
e 74 125
e 74 128
e 75 76
e 75 82
e 75 83
e 75 84
e 75 86
e 75 88
e 75 89
e 75 91
e 75 92
e 75 93
e 75 94
e 75 96
e 75 99
e 75 107
e 75 111
e 75 113
e 75 115
e 75 116
e 75 118
e 75 122
e 75 123
e 75 126
e 75 127
e 75 128
e 76 78
e 76 79
e 76 80
e 76 83
e 76 88
e 76 89
e 76 90
e 76 91
e 76 92
e 76 93
e 76 94
e 76 96
e 76 99
e 76 100
e 76 101
e 76 102
e 76 105
e 76 107
e 76 108
e 76 109
e 76 110
e 76 111
e 76 113
e 76 114
e 76 115
e 76 117
e 76 122
e 76 123
e 76 125
e 76 126
e 76 127
e 76 128
e 77 104
e 77 112
e 77 124
e 78 79
e 78 80
e 78 88
e 78 90
e 78 91
e 78 92
e 78 97
e 78 99
e 78 100
e 78 101
e 78 102
e 78 105
e 78 108
e 78 109
e 78 110
e 78 114
e 78 117
e 78 121
e 78 125
e 78 128
e 79 80
e 79 88
e 79 90
e 79 91
e 79 92
e 79 97
e 79 98
e 79 99
e 79 100
e 79 101
e 79 102
e 79 103
e 79 105
e 79 108
e 79 109
e 79 110
e 79 114
e 79 117
e 79 125
e 79 128
e 80 88
e 80 90
e 80 97
e 80 98
e 80 100
e 80 102
e 80 103
e 80 105
e 80 108
e 80 109
e 80 110
e 80 114
e 80 117
e 80 119
e 80 120
e 80 125
e 80 128
e 81 85
e 81 104
e 82 83
e 82 84
e 82 86
e 82 92
e 82 93
e 82 94
e 82 99
e 82 111
e 82 113
e 82 115
e 82 116
e 82 118
e 82 123
e 82 126
e 82 127
e 83 86
e 83 88
e 83 91
e 83 92
e 83 93
e 83 94
e 83 99
e 83 100
e 83 107
e 83 111
e 83 113
e 83 115
e 83 116
e 83 118
e 83 123
e 83 126
e 83 127
e 83 128
e 84 86
e 84 89
e 84 92
e 84 93
e 84 94
e 84 95
e 84 96
e 84 106
e 84 107
e 84 111
e 84 113
e 84 115
e 84 116
e 84 122
e 84 123
e 84 126
e 84 127
e 85 104
e 86 92
e 86 93
e 86 94
e 86 111
e 86 113
e 86 115
e 86 116
e 86 118
e 86 123
e 86 126
e 86 127
e 88 90
e 88 91
e 88 92
e 88 93
e 88 94
e 88 96
e 88 99
e 88 100
e 88 101
e 88 102
e 88 105
e 88 107
e 88 108
e 88 109
e 88 110
e 88 113
e 88 114
e 88 115
e 88 116
e 88 117
e 88 122
e 88 123
e 88 125
e 88 126
e 88 127
e 88 128
e 89 93
e 89 95
e 89 96
e 89 106
e 89 107
e 89 111
e 89 122
e 89 127
e 90 91
e 90 92
e 90 97
e 90 98
e 90 100
e 90 101
e 90 102
e 90 103
e 90 105
e 90 108
e 90 109
e 90 110
e 90 114
e 90 117
e 90 120
e 90 125
e 90 128
e 91 92
e 91 93
e 91 94
e 91 97
e 91 99
e 91 100
e 91 101
e 91 105
e 91 107
e 91 108
e 91 110
e 91 113
e 91 114
e 91 115
e 91 116
e 91 117
e 91 122
e 91 123
e 91 125
e 91 126
e 91 127
e 91 128
e 92 93
e 92 94
e 92 96
e 92 99
e 92 100
e 92 101
e 92 107
e 92 108
e 92 110
e 92 111
e 92 113
e 92 114
e 92 115
e 92 116
e 92 118
e 92 122
e 92 123
e 92 126
e 92 127
e 92 128
e 93 94
e 93 96
e 93 99
e 93 107
e 93 111
e 93 113
e 93 115
e 93 116
e 93 118
e 93 123
e 93 126
e 93 127
e 94 99
e 94 107
e 94 111
e 94 113
e 94 115
e 94 116
e 94 118
e 94 123
e 94 126
e 94 127
e 94 128
e 95 96
e 95 106
e 95 122
e 95 127
e 96 106
e 96 107
e 96 111
e 96 113
e 96 115
e 96 116
e 96 122
e 96 123
e 96 126
e 96 127
e 97 100
e 97 101
e 97 102
e 97 105
e 97 108
e 97 109
e 97 110
e 97 114
e 97 117
e 97 121
e 97 125
e 97 128
e 98 102
e 98 103
e 98 108
e 98 109
e 98 110
e 98 119
e 98 120
e 98 122
e 98 128
e 99 100
e 99 101
e 99 107
e 99 110
e 99 113
e 99 114
e 99 115
e 99 116
e 99 118
e 99 123
e 99 126
e 99 127
e 99 128
e 100 101
e 100 102
e 100 105
e 100 107
e 100 108
e 100 110
e 100 114
e 100 115
e 100 117
e 100 123
e 100 125
e 100 126
e 100 128
e 101 105
e 101 110
e 101 114
e 101 115
e 101 117
e 101 125
e 101 128
e 102 103
e 102 105
e 102 108
e 102 109
e 102 110
e 102 114
e 102 117
e 102 120
e 102 125
e 102 128
e 103 108
e 103 109
e 103 110
e 103 119
e 103 120
e 103 122
e 104 124
e 105 108
e 105 109
e 105 110
e 105 114
e 105 117
e 105 121
e 105 125
e 105 128
e 107 110
e 107 111
e 107 113
e 107 115
e 107 116
e 107 122
e 107 123
e 107 126
e 107 127
e 107 128
e 108 109
e 108 110
e 108 114
e 108 117
e 108 120
e 108 122
e 108 125
e 108 128
e 109 110
e 109 114
e 109 117
e 109 119
e 109 120
e 109 122
e 109 128
e 110 114
e 110 117
e 110 122
e 110 123
e 110 125
e 110 126
e 110 128
e 111 113
e 111 115
e 111 116
e 111 118
e 111 122
e 111 123
e 111 126
e 111 127
e 112 120
e 113 115
e 113 116
e 113 118
e 113 123
e 113 126
e 113 127
e 113 128
e 114 115
e 114 117
e 114 123
e 114 125
e 114 126
e 114 128
e 115 116
e 115 118
e 115 123
e 115 126
e 115 127
e 115 128
e 116 118
e 116 123
e 116 126
e 116 127
e 117 121
e 117 125
e 117 128
e 118 123
e 118 126
e 119 120
e 119 122
e 121 125
e 122 127
e 122 128
e 123 126
e 123 127
e 123 128
e 125 128
e 126 127
e 126 128
