results/10m_incmaxclq_results/miles750.col.out
Using the degeneracy ordering...
instance information: #node=128, #edge=2113 density= 0.2600
initial clique size: 24

Current MaxClique Size=25 0
Max Clique Size: 25
Clique Output: 30 38 41 45 46 52 53 58 61 66 68 69 75 83 92 93 94 107 111 113 115 116 123 126 127
Current MaxClique Size=26 0
Max Clique Size: 26
Clique Output: 28 30 38 41 45 46 52 53 58 61 66 68 69 75 83 92 93 94 107 111 113 115 116 123 126 127
Current MaxClique Size=27 0
Max Clique Size: 27
Clique Output: 25 28 30 38 41 45 46 52 53 58 61 66 68 69 75 83 92 93 94 107 111 113 115 116 123 126 127
Current MaxClique Size=28 0
Max Clique Size: 28
Clique Output: 24 25 28 30 38 41 45 46 52 53 58 61 66 68 69 75 83 92 93 94 107 111 113 115 116 123 126 127
Current MaxClique Size=29 0
Max Clique Size: 29
Clique Output: 20 24 25 28 30 38 41 45 46 52 53 58 61 66 68 69 75 83 92 93 94 107 111 113 115 116 123 126 127
Current MaxClique Size=30 0
Max Clique Size: 30
Clique Output: 10 20 24 25 28 30 38 41 45 46 52 53 58 61 66 68 69 75 83 92 93 94 107 111 113 115 116 123 126 127
Current MaxClique Size=31 0
Max Clique Size: 31
Clique Output: 2 10 20 24 25 28 30 38 41 45 46 52 53 58 61 66 68 69 75 83 92 93 94 107 111 113 115 116 123 126 127
Max Clique Size: 31
Clique Output: 2 10 20 24 25 28 30 38 41 45 46 52 53 58 61 66 68 69 75 83 92 93 94 107 111 113 115 116 123 126 127
Program terminated in 0 seconds.
NewIncMaxCLQ graphs/miles750.col 128 2113 0.2600 0 0 31 266 0
