results/clicolcom_results/miles750.col.log
graphs/miles750.col
c found max clique of size 31
c found chromatic number: 31
time: 0
